940870
10 21 5744
21 1 6578
1 11 8732
11 35 5412
35 8 20127
8 6 34947
6 9 47658
9 15 71452
15 17 45489
17 14 42391
14 3 30026
3 16 71701
16 19 62440
19 40 13572
40 4 28500
4 22 23621
22 24 45980
24 5 63665
5 32 3290
32 26 29397
26 33 15458
33 12 3967
12 34 39715
34 25 30137
25 31 7859
31 39 9087
39 37 6534
37 30 941
30 20 17244
20 28 26675
28 13 6411
13 23 20028
23 38 7449
38 29 745
29 36 16895
36 7 11794
7 18 20722
18 27 12606
27 2 15288
2 10 10593
